MARKOV
228
 2 2 2 2 2 2 2 2 2 2 2 2 2 2 2 2 2 2 2 2 2 2 2 2 2 2 2 2 2 2 2 2 2 2 2 2 2 2 2 2 2 2 2 2 2 2 2 2 2 2 2 2 2 2 2 2 2 2 2 2 2 2 2 2 2 2 2 2 2 2 2 2 2 2 2 2 2 2 2 2 2 2 2 2 2 2 2 2 2 2 2 2 2 2 2 2 2 2 2 2 2 2 2 2 2 2 2 2 2 2 2 2 2 2 2 2 2 2 2 2 2 2 2 2 2 2 2 2 2 2 2 2 2 2 2 2 2 2 2 2 2 2 2 2 2 2 2 2 2 2 2 2 2 2 2 2 2 2 2 2 2 2 2 2 2 2 2 2 2 2 2 2 2 2 2 2 2 2 2 2 2 2 2 2 2 2 2 2 2 2 2 2 2 2 2 2 2 2 2 2 2 2 2 2 2 2 2 2 2 2 2 2 2 2 2 2 2 2 2 2 2 2 2 2 2 2 2 2
839
1	0 
1	1 
1	2 
1	3 
1	4 
1	5 
1	6 
1	7 
1	8 
1	9 
1	10 
1	11 
1	12 
1	13 
1	14 
1	15 
1	16 
1	17 
1	18 
1	19 
1	20 
1	21 
1	22 
1	23 
1	24 
1	25 
1	26 
1	27 
1	28 
1	29 
1	30 
1	31 
1	32 
1	33 
1	34 
1	35 
1	36 
1	37 
1	38 
1	39 
1	40 
1	41 
1	42 
1	43 
1	44 
1	45 
1	46 
1	47 
1	48 
1	49 
1	50 
1	51 
1	52 
1	53 
1	54 
1	55 
1	56 
1	57 
1	58 
1	59 
1	60 
1	61 
1	62 
1	63 
1	64 
1	65 
1	66 
1	67 
1	68 
1	69 
1	70 
1	71 
1	72 
1	73 
1	74 
1	75 
1	76 
1	77 
1	78 
1	79 
1	80 
1	81 
1	82 
1	83 
1	84 
1	85 
1	86 
1	87 
1	88 
1	89 
1	90 
1	91 
1	92 
1	93 
1	94 
1	95 
1	96 
1	97 
1	98 
1	99 
1	100 
1	101 
1	102 
1	103 
1	104 
1	105 
1	106 
1	107 
1	108 
1	109 
1	110 
1	111 
1	112 
1	113 
1	114 
1	115 
1	116 
1	117 
1	118 
1	119 
1	120 
1	121 
1	122 
1	123 
1	124 
1	125 
1	126 
1	127 
1	128 
1	129 
1	130 
1	131 
1	132 
1	133 
1	134 
1	135 
1	136 
1	137 
1	138 
1	139 
1	140 
1	141 
1	142 
1	143 
1	144 
1	145 
1	146 
1	147 
1	148 
1	149 
1	150 
1	151 
1	152 
1	153 
1	154 
1	155 
1	156 
1	157 
1	158 
1	159 
1	160 
1	161 
1	162 
1	163 
1	164 
1	165 
1	166 
1	167 
1	168 
1	169 
1	170 
1	171 
1	172 
1	173 
1	174 
1	175 
1	176 
1	177 
1	178 
1	179 
1	180 
1	181 
1	182 
1	183 
1	184 
1	185 
1	186 
1	187 
1	188 
1	189 
1	190 
1	191 
1	192 
1	193 
1	194 
1	195 
1	196 
1	197 
1	198 
1	199 
1	200 
1	201 
1	202 
1	203 
1	204 
1	205 
1	206 
1	207 
1	208 
1	209 
1	210 
1	211 
1	212 
1	213 
1	214 
1	215 
1	216 
1	217 
1	218 
1	219 
1	220 
1	221 
1	222 
1	223 
1	224 
1	225 
1	226 
1	227 
2	1 2 
2	1 4 
2	1 198 
2	1 219 
2	1 220 
2	2 33 
2	2 197 
2	2 219 
2	3 4 
2	3 90 
2	3 91 
2	3 221 
2	4 43 
2	4 91 
2	4 198 
2	4 220 
2	4 221 
2	5 7 
2	5 9 
2	5 126 
2	5 129 
2	6 7 
2	6 8 
2	6 10 
2	6 97 
2	7 8 
2	7 9 
2	8 9 
2	8 39 
2	8 97 
2	9 37 
2	9 39 
2	9 126 
2	10 96 
2	11 12 
2	11 13 
2	11 47 
2	12 13 
2	12 14 
2	12 15 
2	13 14 
2	13 36 
2	13 47 
2	13 177 
2	13 178 
2	14 15 
2	14 177 
2	14 180 
2	16 18 
2	16 19 
2	16 20 
2	16 21 
2	16 121 
2	16 124 
2	17 20 
2	17 21 
2	17 100 
2	18 19 
2	18 88 
2	18 124 
2	18 187 
2	19 21 
2	19 187 
2	20 21 
2	20 100 
2	20 101 
2	20 121 
2	20 123 
2	22 23 
2	22 24 
2	22 25 
2	22 60 
2	22 150 
2	23 25 
2	23 118 
2	23 120 
2	23 149 
2	23 150 
2	24 57 
2	24 60 
2	24 66 
2	24 150 
2	24 151 
2	24 227 
2	25 56 
2	25 60 
2	25 148 
2	25 149 
2	26 29 
2	26 105 
2	26 106 
2	26 173 
2	26 175 
2	27 28 
2	27 29 
2	27 106 
2	27 107 
2	27 109 
2	27 201 
2	27 202 
2	28 68 
2	28 104 
2	28 107 
2	28 109 
2	29 106 
2	29 175 
2	29 202 
2	30 32 
2	30 33 
2	30 102 
2	30 103 
2	30 106 
2	30 107 
2	31 32 
2	31 64 
2	31 105 
2	31 117 
2	31 119 
2	32 64 
2	32 65 
2	32 103 
2	32 105 
2	32 106 
2	33 102 
2	33 107 
2	33 219 
2	34 35 
2	34 94 
2	34 95 
2	34 141 
2	34 144 
2	34 174 
2	34 210 
2	35 36 
2	35 49 
2	35 50 
2	35 95 
2	35 178 
2	35 179 
2	35 210 
2	36 47 
2	36 49 
2	36 51 
2	36 178 
2	37 39 
2	37 42 
2	37 98 
2	37 99 
2	37 126 
2	38 41 
2	38 42 
2	38 128 
2	38 131 
2	38 133 
2	38 195 
2	38 196 
2	39 97 
2	39 99 
2	39 101 
2	40 41 
2	40 85 
2	40 87 
2	40 114 
2	40 133 
2	40 223 
2	41 114 
2	41 115 
2	41 133 
2	41 196 
2	42 45 
2	42 98 
2	42 126 
2	42 128 
2	42 195 
2	43 44 
2	43 91 
2	43 92 
2	43 198 
2	43 199 
2	44 45 
2	44 46 
2	44 92 
2	44 195 
2	44 199 
2	45 46 
2	45 98 
2	45 195 
2	46 92 
2	46 93 
2	46 98 
2	46 99 
2	46 123 
2	47 48 
2	47 51 
2	48 51 
2	48 53 
2	49 50 
2	49 51 
2	49 52 
2	50 52 
2	50 95 
2	50 118 
2	50 120 
2	51 52 
2	51 53 
2	51 54 
2	52 54 
2	52 118 
2	53 54 
2	53 146 
2	54 118 
2	54 146 
2	54 147 
2	54 149 
2	55 56 
2	55 58 
2	55 59 
2	55 60 
2	55 61 
2	55 63 
2	56 58 
2	56 60 
2	56 148 
2	56 183 
2	56 185 
2	57 59 
2	57 60 
2	57 62 
2	57 222 
2	57 227 
2	58 61 
2	58 154 
2	58 182 
2	58 185 
2	59 60 
2	59 62 
2	59 63 
2	61 63 
2	61 153 
2	61 154 
2	61 161 
2	61 163 
2	62 63 
2	62 81 
2	62 82 
2	62 193 
2	62 222 
2	63 82 
2	63 161 
2	64 65 
2	64 66 
2	64 151 
2	65 66 
2	65 103 
2	65 224 
2	65 226 
2	66 151 
2	66 226 
2	66 227 
2	67 68 
2	67 69 
2	67 70 
2	67 104 
2	68 69 
2	68 104 
2	68 109 
2	68 111 
2	68 112 
2	69 70 
2	69 108 
2	69 111 
2	69 214 
2	70 89 
2	70 104 
2	70 214 
2	70 220 
2	70 221 
2	71 74 
2	71 76 
2	71 110 
2	71 166 
2	71 218 
2	72 73 
2	72 75 
2	72 79 
2	73 74 
2	73 75 
2	73 76 
2	73 78 
2	73 79 
2	73 217 
2	74 76 
2	74 213 
2	74 217 
2	74 218 
2	75 215 
2	75 217 
2	76 78 
2	76 166 
2	76 167 
2	76 168 
2	77 79 
2	77 80 
2	78 79 
2	78 80 
2	78 167 
2	79 80 
2	80 167 
2	81 82 
2	81 83 
2	81 84 
2	81 192 
2	81 193 
2	82 84 
2	82 161 
2	82 164 
2	83 84 
2	83 162 
2	83 192 
2	84 162 
2	84 164 
2	85 86 
2	85 87 
2	85 133 
2	85 135 
2	86 87 
2	86 132 
2	86 190 
2	86 191 
2	87 191 
2	87 194 
2	87 223 
2	88 89 
2	88 122 
2	88 124 
2	88 187 
2	88 188 
2	88 189 
2	89 122 
2	89 188 
2	89 214 
2	89 216 
2	89 221 
2	90 91 
2	90 92 
2	90 93 
2	90 122 
2	90 125 
2	90 221 
2	91 92 
2	92 93 
2	93 123 
2	93 125 
2	94 95 
2	94 117 
2	94 174 
2	95 117 
2	95 120 
2	96 97 
2	96 100 
2	97 100 
2	97 101 
2	98 99 
2	99 101 
2	99 123 
2	100 101 
2	101 123 
2	102 103 
2	102 197 
2	102 200 
2	103 200 
2	103 224 
2	104 107 
2	104 219 
2	104 220 
2	105 106 
2	105 119 
2	105 173 
2	106 107 
2	107 219 
2	108 110 
2	108 111 
2	108 113 
2	108 214 
2	109 112 
2	109 201 
2	109 205 
2	110 113 
2	110 166 
2	110 214 
2	110 218 
2	111 112 
2	111 113 
2	111 208 
2	112 206 
2	112 208 
2	113 169 
2	113 208 
2	114 115 
2	114 116 
2	114 223 
2	115 116 
2	115 196 
2	115 197 
2	115 200 
2	116 200 
2	116 224 
2	117 119 
2	117 120 
2	117 150 
2	117 151 
2	117 174 
2	118 120 
2	118 149 
2	119 173 
2	119 174 
2	120 150 
2	121 123 
2	121 124 
2	121 125 
2	122 124 
2	122 125 
2	122 221 
2	123 125 
2	124 125 
2	126 128 
2	126 129 
2	127 128 
2	127 129 
2	127 130 
2	127 131 
2	128 129 
2	128 131 
2	130 131 
2	130 133 
2	130 134 
2	131 133 
2	132 134 
2	132 135 
2	133 134 
2	133 135 
2	134 135 
2	136 137 
2	136 139 
2	136 143 
2	136 203 
2	137 138 
2	137 139 
2	137 140 
2	137 142 
2	137 143 
2	138 140 
2	138 141 
2	138 142 
2	138 174 
2	138 175 
2	139 140 
2	139 202 
2	139 203 
2	139 204 
2	140 175 
2	140 202 
2	141 142 
2	141 144 
2	141 174 
2	142 143 
2	142 144 
2	142 145 
2	143 145 
2	144 145 
2	144 210 
2	144 211 
2	145 211 
2	145 212 
2	146 147 
2	146 184 
2	147 148 
2	147 149 
2	147 183 
2	148 149 
2	148 183 
2	150 151 
2	152 154 
2	152 159 
2	152 181 
2	152 182 
2	153 154 
2	153 157 
2	153 163 
2	154 157 
2	154 159 
2	154 182 
2	155 156 
2	155 157 
2	155 158 
2	155 159 
2	156 159 
2	157 158 
2	157 159 
2	157 160 
2	157 163 
2	158 160 
2	160 162 
2	160 163 
2	160 164 
2	161 163 
2	161 164 
2	162 164 
2	163 164 
2	165 166 
2	165 168 
2	165 169 
2	165 172 
2	166 168 
2	166 169 
2	167 168 
2	169 170 
2	169 172 
2	169 208 
2	170 171 
2	170 172 
2	170 206 
2	170 208 
2	171 206 
2	171 207 
2	173 174 
2	173 175 
2	174 175 
2	175 202 
2	176 177 
2	176 179 
2	176 180 
2	176 209 
2	177 178 
2	177 179 
2	177 180 
2	178 179 
2	179 210 
2	179 211 
2	181 182 
2	181 186 
2	182 185 
2	182 186 
2	183 184 
2	183 185 
2	183 186 
2	184 186 
2	185 186 
2	187 189 
2	187 215 
2	188 189 
2	188 213 
2	188 216 
2	188 217 
2	189 215 
2	189 217 
2	190 191 
2	190 192 
2	191 192 
2	191 193 
2	191 194 
2	192 193 
2	193 194 
2	193 222 
2	194 222 
2	194 223 
2	194 225 
2	195 196 
2	195 199 
2	196 197 
2	196 199 
2	197 198 
2	197 199 
2	197 200 
2	198 199 
2	200 224 
2	201 202 
2	201 204 
2	201 205 
2	202 204 
2	203 204 
2	203 205 
2	203 207 
2	204 205 
2	205 206 
2	205 207 
2	206 207 
2	206 208 
2	209 211 
2	209 212 
2	210 211 
2	211 212 
2	213 216 
2	213 217 
2	213 218 
2	214 216 
2	214 218 
2	215 217 
2	216 218 
2	219 220 
2	220 221 
2	222 225 
2	222 227 
2	223 224 
2	223 225 
2	223 226 
2	224 226 
2	225 226 
2	225 227 
2	226 227 
0	

2
 0.252912 1
2
 0.110029 1
2
 0.117348 1
2
 0.144937 1
2
 0.133371 1
2
 1 0.156929
2
 1 0.14547
2
 1 0.153092
2
 1 0.173253
2
 1 0.222597
2
 1 0.124719
2
 1 0.0612525
2
 1 0.0236517
2
 1 0.0277118
2
 1 0.0288726
2
 1 0.022546
2
 1 0.256868
2
 1 0.319751
2
 0.5224 1
2
 1 0.561555
2
 1 0.455783
2
 1 0.307008
2
 0.330477 1
2
 0.0834546 1
2
 0.470863 1
2
 0.373425 1
2
 0.671289 1
2
 0.589398 1
2
 1 0.829979
2
 0.508594 1
2
 0.0852593 1
2
 0.0713007 1
2
 0.151549 1
2
 0.0897742 1
2
 0.489437 1
2
 0.51111 1
2
 1 0.507312
2
 0.946633 1
2
 1 0.674676
2
 0.855844 1
2
 0.504279 1
2
 0.868359 1
2
 1 0.787884
2
 0.21711 1
2
 0.477899 1
2
 0.440945 1
2
 0.207911 1
2
 1 0.305461
2
 1 0.410531
2
 1 0.261626
2
 1 0.469107
2
 1 0.513307
2
 0.909314 1
2
 1 0.0731201
2
 1 0.264549
2
 1 0.286535
2
 1 0.261898
2
 1 0.551973
2
 0.384525 1
2
 1 0.394478
2
 1 0.88819
2
 0.855262 1
2
 0.83813 1
2
 0.779293 1
2
 0.286611 1
2
 0.52622 1
2
 0.471082 1
2
 0.349841 1
2
 0.446174 1
2
 0.174987 1
2
 0.0694014 1
2
 1 0.0967368
2
 1 0.0246003
2
 1 0.0197881
2
 1 0.070765
2
 1 0.0244243
2
 1 0.0291367
2
 1 0.0361624
2
 1 0.0272721
2
 1 0.0137445
2
 1 0.0452221
2
 1 0.1517
2
 1 0.105029
2
 1 0.327856
2
 1 0.2046
2
 0.982276 1
2
 1 0.18133
2
 1 0.676021
2
 1 0.82333
2
 0.163573 1
2
 0.759252 1
2
 0.0950712 1
2
 0.65322 1
2
 0.834256 1
2
 0.103301 1
2
 0.131869 1
2
 1 0.521562
2
 1 0.265304
2
 1 0.783528
2
 1 0.34724
2
 1 0.187402
2
 1 0.257774
2
 0.43158 1
2
 0.213902 1
2
 0.0734592 1
2
 0.162477 1
2
 0.453985 1
2
 0.0764301 1
2
 1 0.186417
2
 1 0.430164
2
 1 0.0632543
2
 1 0.192283
2
 1 0.279697
2
 1 0.0888531
2
 0.913816 1
2
 1 0.791892
2
 0.538737 1
2
 0.0923345 1
2
 1 0.815286
2
 0.0312366 1
2
 0.288319 1
2
 1 0.451408
2
 1 0.606186
2
 1 0.387045
2
 1 0.718722
2
 1 0.738053
2
 1 0.449507
2
 1 0.218664
2
 1 0.403277
2
 1 0.0995794
2
 1 0.0473257
2
 1 0.176457
2
 1 0.338025
2
 1 0.656862
2
 1 0.145996
2
 1 0.310988
2
 1 0.0363111
2
 1 0.0331292
2
 1 0.0637497
2
 1 0.0507501
2
 1 0.100396
2
 1 0.08388
2
 1 0.0379358
2
 1 0.0246766
2
 1 0.0654429
2
 1 0.0598443
2
 0.173914 1
2
 0.27027 1
2
 0.330815 1
2
 0.426155 1
2
 0.0831096 1
2
 0.087583 1
2
 1 0.145678
2
 1 0.0507575
2
 1 0.186853
2
 1 0.139876
2
 1 0.071008
2
 1 0.204741
2
 1 0.326202
2
 1 0.0683414
2
 1 0.238996
2
 1 0.166032
2
 1 0.432292
2
 1 0.155179
2
 1 0.114356
2
 1 0.0203917
2
 1 0.0320469
2
 1 0.036214
2
 1 0.0312984
2
 1 0.0420343
2
 1 0.0477925
2
 1 0.0175078
2
 1 0.0363019
2
 0.136536 1
2
 0.113698 1
2
 0.440651 1
2
 1 0.0352839
2
 1 0.0157324
2
 1 0.0540568
2
 1 0.0342549
2
 1 0.0364908
2
 1 0.265798
2
 1 0.273781
2
 1 0.612973
2
 1 0.123807
2
 1 0.166427
2
 1 0.169427
2
 1 0.481922
2
 1 0.125144
2
 1 0.156754
2
 1 0.259289
2
 1 0.106724
2
 1 0.31769
2
 1 0.397256
2
 1 0.277706
2
 0.758173 1
2
 1 0.692856
2
 0.244041 1
2
 0.559327 1
2
 1 0.664817
2
 0.378087 1
2
 1 0.142
2
 1 0.104317
2
 1 0.026159
2
 1 0.0459841
2
 1 0.0781437
2
 1 0.0547838
2
 1 0.043478
2
 1 0.0451941
2
 1 0.021129
2
 1 0.0407814
2
 1 0.0435017
2
 1 0.0283209
2
 1 0.434852
2
 0.672879 1
2
 1 0.450019
2
 1 0.669375
2
 1 0.234707
2
 1 0.47894
2
 0.0772542 1
2
 0.0184317 1
2
 0.0308785 1
2
 0.168911 1
2
 0.443131 1
2
 0.449018 1
2
 0.254131 1
2
 0.951074 1
2
 0.511589 1
4
 0.984497 0.284182 0.284182 1
4
 0.982896 0.27991 0.27991 1
4
 0.98843 0.285035 0.285035 1
4
 0.98091 0.282235 0.282235 1
4
 0.97948 0.278379 0.278379 1
4
 0.986599 0.288765 0.288765 1
4
 0.991431 0.290339 0.290339 1
4
 0.981791 0.284342 0.284342 1
4
 0.979591 0.274031 0.274031 1
4
 0.980362 0.271713 0.271713 1
4
 0.981022 0.273689 0.273689 1
4
 0.975036 0.269436 0.269436 1
4
 0.987377 0.281119 0.281119 1
4
 0.983614 0.277412 0.277412 1
4
 0.987709 0.282846 0.282846 1
4
 0.978765 0.276241 0.276241 1
4
 0.977612 0.273102 0.273102 1
4
 1 0.295345 0.295345 0.966773
4
 1 0.295238 0.295238 0.969927
4
 1 0.297559 0.297559 0.969328
4
 1 0.299979 0.299979 0.96493
4
 1 0.2901 0.2901 0.969599
4
 1 0.287849 0.287849 0.973308
4
 1 0.285091 0.285091 0.973034
4
 1 0.284577 0.284577 0.977744
4
 1 0.290887 0.290887 0.971016
4
 1 0.293054 0.293054 0.970471
4
 1 0.290781 0.290781 0.974183
4
 1 0.288035 0.288035 0.97769
4
 1 0.285349 0.285349 0.979173
4
 1 0.292721 0.292721 0.976868
4
 1 0.290181 0.290181 0.977142
4
 1 0.29525 0.29525 0.973036
4
 1 0.280984 0.280984 0.979227
4
 0.965708 0.308043 0.308043 1
4
 0.968043 0.308038 0.308038 1
4
 0.973658 0.313593 0.313593 1
4
 0.96365 0.304674 0.304674 1
4
 0.957232 0.300046 0.300046 1
4
 0.956802 0.301434 0.301434 1
4
 0.959547 0.300041 0.300041 1
4
 0.969295 0.305691 0.305691 1
4
 0.971583 0.310164 0.310164 1
4
 0.961543 0.299699 0.299699 1
4
 0.966089 0.302926 0.302926 1
4
 0.952728 0.29685 0.29685 1
4
 0.955139 0.295146 0.295146 1
4
 0.950751 0.292274 0.292274 1
4
 0.978714 0.261768 0.261768 1
4
 0.98119 0.262444 0.262444 1
4
 0.991213 0.270201 0.270201 1
4
 0.986494 0.265866 0.265866 1
4
 0.986659 0.268465 0.268465 1
4
 0.980254 0.264315 0.264315 1
4
 0.998251 0.273434 0.273434 1
4
 0.993499 0.269046 0.269046 1
4
 1 0.274417 0.274417 0.997149
4
 0.975423 0.258416 0.258416 1
4
 0.970451 0.257395 0.257395 1
4
 0.974491 0.260258 0.260258 1
4
 0.96773 0.253586 0.253586 1
4
 0.983176 0.262461 0.262461 1
4
 0.970179 0.254241 0.254241 1
4
 0.993219 0.270218 0.270218 1
4
 1 0.275689 0.275689 0.99743
4
 1 0.278179 0.278179 0.996199
4
 0.993386 0.27286 0.27286 1
4
 0.99898 0.276932 0.276932 1
4
 1 0.321273 0.321273 0.997721
4
 1 0.319546 0.319546 0.995035
4
 1 0.323785 0.323785 0.993919
4
 1 0.323628 0.323628 0.990575
4
 1 0.318829 0.318829 0.999683
4
 1 0.323778 0.323778 0.996657
4
 0.995553 0.319621 0.319621 1
4
 0.994324 0.316369 0.316369 1
4
 0.999025 0.322452 0.322452 1
4
 0.997568 0.318047 0.318047 1
4
 1 0.319973 0.319973 0.989852
4
 1 0.321882 0.321882 0.990631
4
 1 0.315116 0.315116 0.996488
4
 1 0.317109 0.317109 0.999739
4
 1 0.315387 0.315387 0.99957
4
 1 0.317398 0.317398 0.991631
4
 1 0.329253 0.329253 0.988687
4
 1 0.326151 0.326151 0.98952
4
 1 0.327822 0.327822 0.993138
4
 1 0.32529 0.32529 0.997162
4
 0.967668 0.28248 0.28248 1
4
 0.975141 0.289731 0.289731 1
4
 0.973227 0.286484 0.286484 1
4
 0.971042 0.287847 0.287847 1
4
 0.966311 0.283437 0.283437 1
4
 0.964523 0.274965 0.274965 1
4
 0.965607 0.278461 0.278461 1
4
 0.971153 0.282407 0.282407 1
4
 0.969192 0.279113 0.279113 1
4
 0.960146 0.271962 0.271962 1
4
 0.959553 0.27284 0.27284 1
4
 0.95993 0.274644 0.274644 1
4
 0.963225 0.271009 0.271009 1
4
 0.968051 0.274564 0.274564 1
4
 0.968812 0.27728 0.27728 1
4
 0.95977 0.270176 0.270176 1
4
 0.971862 0.284119 0.284119 1
4
 0.964955 0.281098 0.281098 1
4
 0.960631 0.276309 0.276309 1
4
 0.988261 0.296258 0.296258 1
4
 0.987873 0.292844 0.292844 1
4
 0.992042 0.295746 0.295746 1
4
 0.993491 0.298843 0.298843 1
4
 0.982672 0.291281 0.291281 1
4
 0.980688 0.287883 0.287883 1
4
 0.988315 0.299875 0.299875 1
4
 0.990982 0.304097 0.304097 1
4
 0.984659 0.298179 0.298179 1
4
 0.987094 0.303328 0.303328 1
4
 0.984272 0.299199 0.299199 1
4
 0.991261 0.302274 0.302274 1
4
 0.994048 0.302749 0.302749 1
4
 0.993825 0.300679 0.300679 1
4
 0.984936 0.296391 0.296391 1
4
 0.983003 0.29307 0.29307 1
4
 0.991987 0.294133 0.294133 1
4
 0.980633 0.286313 0.286313 1
4
 0.983004 0.286786 0.286786 1
4
 0.970876 0.298184 0.298184 1
4
 0.974208 0.297692 0.297692 1
4
 0.9747 0.299439 0.299439 1
4
 0.965495 0.290526 0.290526 1
4
 0.964844 0.291329 0.291329 1
4
 0.970496 0.293767 0.293767 1
4
 0.966525 0.294083 0.294083 1
4
 0.972075 0.303771 0.303771 1
4
 0.975028 0.305324 0.305324 1
4
 0.976233 0.304376 0.304376 1
4
 0.975357 0.30212 0.30212 1
4
 0.96886 0.301023 0.301023 1
4
 0.966687 0.29795 0.29795 1
4
 0.967176 0.296716 0.296716 1
4
 0.974917 0.311204 0.311204 1
4
 0.975575 0.308285 0.308285 1
4
 0.977438 0.311633 0.311633 1
4
 0.969404 0.303942 0.303942 1
4
 1 0.289957 0.289957 0.980385
4
 1 0.294581 0.294581 0.980276
4
 1 0.2907 0.2907 0.983639
4
 1 0.288796 0.288796 0.984301
4
 1 0.295022 0.295022 0.976266
4
 1 0.303841 0.303841 0.978133
4
 1 0.299006 0.299006 0.979616
4
 1 0.301675 0.301675 0.974843
4
 1 0.304037 0.304037 0.974022
4
 1 0.305581 0.305581 0.97446
4
 1 0.299293 0.299293 0.983309
4
 1 0.30068 0.30068 0.983586
4
 1 0.284761 0.284761 0.982147
4
 1 0.28629 0.28629 0.984577
4
 1 0.284308 0.284308 0.985517
4
 1 0.308899 0.308899 0.977037
4
 1 0.313495 0.313495 0.972603
4
 1 0.315196 0.315196 0.972549
4
 1 0.309808 0.309808 0.980004
4
 1 0.310669 0.310669 0.973368
4
 1 0.312586 0.312586 0.978355
4
 1 0.307256 0.307256 0.980444
4
 1 0.304335 0.304335 0.983531
4
 1 0.308109 0.308109 0.973805
4
 1 0.303168 0.303168 0.982924
4
 1 0.294661 0.294661 0.984966
4
 1 0.292775 0.292775 0.983805
4
 1 0.297127 0.297127 0.976431
4
 1 0.299331 0.299331 0.975664
4
 1 0.296968 0.296968 0.984137
4
 0.997015 0.286914 0.286914 1
4
 0.98882 0.280768 0.280768 1
4
 0.99277 0.282551 0.282551 1
4
 0.992936 0.286267 0.286267 1
4
 0.997687 0.289483 0.289483 1
4
 1 0.290776 0.290776 0.994023
4
 1 0.288083 0.288083 0.995978
4
 0.997184 0.28493 0.28493 1
4
 1 0.293052 0.293052 0.993186
4
 1 0.291302 0.291302 0.997882
4
 1 0.289942 0.289942 0.991458
4
 1 0.290779 0.290779 0.988345
4
 1 0.294943 0.294943 0.988679
4
 0.999763 0.284847 0.284847 1
4
 1 0.284804 0.284804 0.997544
4
 1 0.288086 0.288086 0.990289
4
 1 0.286198 0.286198 0.990956
4
 1 0.283231 0.283231 0.996704
4
 0.981342 0.319417 0.319417 1
4
 0.979746 0.316193 0.316193 1
4
 0.98388 0.319858 0.319858 1
4
 0.990143 0.326599 0.326599 1
4
 0.979747 0.308898 0.308898 1
4
 0.980407 0.313226 0.313226 1
4
 0.982226 0.312809 0.312809 1
4
 0.98344 0.311838 0.311838 1
4
 0.980078 0.305656 0.305656 1
4
 0.986261 0.312995 0.312995 1
4
 0.985044 0.30981 0.30981 1
4
 0.984102 0.316207 0.316207 1
4
 0.988532 0.323301 0.323301 1
4
 0.987978 0.32073 0.32073 1
4
 0.98981 0.320304 0.320304 1
4
 0.988756 0.316958 0.316958 1
4
 0.994266 0.32749 0.32749 1
4
 0.999247 0.333449 0.333449 1
4
 0.992649 0.321492 0.321492 1
4
 0.998686 0.330798 0.330798 1
4
 0.997566 0.327736 0.327736 1
4
 0.996111 0.324339 0.324339 1
4
 1 0.332356 0.332356 0.981551
4
 1 0.335723 0.335723 0.976384
4
 1 0.330029 0.330029 0.979128
4
 1 0.329225 0.329225 0.982378
4
 1 0.336153 0.336153 0.973756
4
 1 0.333007 0.333007 0.975014
4
 1 0.335589 0.335589 0.97935
4
 1 0.329094 0.329094 0.985361
4
 1 0.33078 0.33078 0.988965
4
 1 0.333441 0.333441 0.986747
4
 1 0.335708 0.335708 0.981772
4
 1 0.324852 0.324852 0.982156
4
 1 0.32406 0.32406 0.985416
4
 1 0.324848 0.324848 0.979237
4
 1 0.322093 0.322093 0.980833
4
 1 0.319546 0.319546 0.986411
4
 1 0.339423 0.339423 0.971572
4
 1 0.343381 0.343381 0.96825
4
 1 0.342555 0.342555 0.971682
4
 1 0.339109 0.339109 0.976604
4
 1 0.32679 0.32679 0.982929
4
 1 0.327585 0.327585 0.976766
4
 1 0.330544 0.330544 0.975561
4
 1 0.336677 0.336677 0.970208
4
 1 0.343182 0.343182 0.964343
4
 1 0.343821 0.343821 0.965644
4
 1 0.339149 0.339149 0.966131
4
 1 0.342135 0.342135 0.963423
4
 1 0.330541 0.330541 0.972662
4
 1 0.329777 0.329777 0.968302
4
 1 0.330786 0.330786 0.969227
4
 1 0.327648 0.327648 0.969607
4
 1 0.324803 0.324803 0.97545
4
 1 0.333774 0.333774 0.968031
4
 1 0.335975 0.335975 0.967379
4
 0.996731 0.307011 0.307011 1
4
 0.998018 0.309794 0.309794 1
4
 0.99494 0.309105 0.309105 1
4
 1 0.310025 0.310025 0.999176
4
 0.999309 0.305391 0.305391 1
4
 1 0.308077 0.308077 0.995927
4
 1 0.310225 0.310225 0.994977
4
 0.999027 0.312397 0.312397 1
4
 1 0.312634 0.312634 0.993693
4
 1 0.314696 0.314696 0.993024
4
 0.963929 0.26904 0.26904 1
4
 0.962361 0.26588 0.26588 1
4
 0.966694 0.26869 0.26869 1
4
 0.968758 0.272569 0.272569 1
4
 0.960741 0.265718 0.265718 1
4
 0.967128 0.272403 0.272403 1
4
 0.958854 0.26805 0.26805 1
4
 0.956167 0.263643 0.263643 1
4
 0.957294 0.265786 0.265786 1
4
 0.963497 0.265373 0.265373 1
4
 0.955362 0.259638 0.259638 1
4
 0.954611 0.260547 0.260547 1
4
 0.95961 0.261387 0.261387 1
4
 0.968271 0.265611 0.265611 1
4
 0.969902 0.272049 0.272049 1
4
 0.963931 0.26415 0.26415 1
4
 0.971592 0.271435 0.271435 1
4
 0.970448 0.26835 0.26835 1
4
 0.944854 0.246177 0.246177 1
4
 0.939722 0.243301 0.243301 1
4
 0.945809 0.249075 0.249075 1
4
 0.939722 0.244929 0.244929 1
4
 0.949801 0.250705 0.250705 1
4
 0.938563 0.237239 0.237239 1
4
 0.939988 0.236658 0.236658 1
4
 0.93268 0.232451 0.232451 1
4
 0.943 0.242608 0.242608 1
4
 0.94226 0.239432 0.239432 1
4
 0.937878 0.239774 0.239774 1
4
 0.935511 0.237171 0.237171 1
4
 0.934934 0.235176 0.235176 1
4
 0.946555 0.243289 0.243289 1
4
 0.940039 0.242359 0.242359 1
4
 0.950442 0.248353 0.248353 1
4
 0.948736 0.245912 0.245912 1
4
 0.950121 0.249734 0.249734 1
4
 0.947619 0.2411 0.2411 1
4
 0.947991 0.242693 0.242693 1
4
 0.932574 0.236928 0.236928 1
4
 0.934932 0.241131 0.241131 1
4
 0.929019 0.235761 0.235761 1
4
 0.931213 0.238017 0.238017 1
4
 0.924753 0.227701 0.227701 1
4
 0.921384 0.226896 0.226896 1
4
 0.929647 0.232384 0.232384 1
4
 0.926259 0.231562 0.231562 1
4
 0.926675 0.233201 0.233201 1
4
 0.925688 0.229614 0.229614 1
4
 0.922729 0.230422 0.230422 1
4
 1 0.333003 0.333003 0.963691
4
 1 0.335411 0.335411 0.956145
4
 1 0.335267 0.335267 0.958833
4
 1 0.332702 0.332702 0.957649
4
 1 0.329844 0.329844 0.96407
4
 1 0.336293 0.336293 0.959749
4
 1 0.336224 0.336224 0.963963
4
 1 0.338256 0.338256 0.959642
4
 1 0.338725 0.338725 0.952234
4
 1 0.342189 0.342189 0.94786
4
 1 0.336133 0.336133 0.951058
4
 1 0.342042 0.342042 0.950525
4
 1 0.340555 0.340555 0.954805
4
 1 0.319507 0.319507 0.962985
4
 1 0.31725 0.31725 0.968571
4
 1 0.312693 0.312693 0.969386
4
 1 0.315436 0.315436 0.966452
4
 1 0.32124 0.32124 0.962931
4
 1 0.322528 0.322528 0.95625
4
 1 0.326395 0.326395 0.955123
4
 1 0.324956 0.324956 0.958993
4
 1 0.32266 0.32266 0.964555
4
 1 0.320461 0.320461 0.969007
4
 1 0.316331 0.316331 0.974299
4
 0.968327 0.260037 0.260037 1
4
 0.972632 0.261789 0.261789 1
4
 0.971977 0.259899 0.259899 1
4
 0.965234 0.253237 0.253237 1
4
 0.96545 0.256259 0.256259 1
4
 0.964475 0.254123 0.254123 1
4
 0.973013 0.264841 0.264841 1
4
 0.965828 0.259246 0.259246 1
4
 0.964364 0.261622 0.261622 1
4
 0.965503 0.260688 0.260688 1
4
 0.970884 0.265781 0.265781 1
4
 0.984388 0.275065 0.275065 1
4
 0.988321 0.276812 0.276812 1
4
 0.990989 0.277452 0.277452 1
4
 0.980527 0.269833 0.269833 1
4
 0.985606 0.272843 0.272843 1
4
 0.978382 0.270791 0.270791 1
4
 0.988987 0.278826 0.278826 1
4
 0.995618 0.281245 0.281245 1
4
 0.999147 0.280574 0.280574 1
4
 0.992883 0.277212 0.277212 1
4
 0.978704 0.301621 0.301621 1
4
 0.982173 0.30241 0.30241 1
4
 0.974482 0.295908 0.295908 1
4
 0.982669 0.304185 0.304185 1
4
 0.984159 0.307514 0.307514 1
4
 1 0.280477 0.280477 0.983968
4
 1 0.277524 0.277524 0.988564
4
 1 0.279135 0.279135 0.988231
4
 1 0.281657 0.281657 0.987012
4
 1 0.287024 0.287024 0.987845
4
 1 0.28317 0.28317 0.989454
4
 1 0.282188 0.282188 0.994244
4
 1 0.278691 0.278691 0.991622
4
 1 0.280234 0.280234 0.995193
4
 0.997628 0.300159 0.300159 1
4
 0.996845 0.295736 0.295736 1
4
 0.998918 0.299366 0.299366 1
4
 1 0.302387 0.302387 0.999623
4
 1 0.306039 0.306039 0.99615
4
 0.972737 0.278706 0.278706 1
4
 0.975089 0.279166 0.279166 1
4
 0.973667 0.275353 0.275353 1
4
 0.979366 0.291412 0.291412 1
4
 0.980907 0.295723 0.295723 1
4
 0.977168 0.292798 0.292798 1
4
 0.975471 0.284785 0.284785 1
4
 0.975855 0.281928 0.281928 1
4
 0.94932 0.253855 0.253855 1
4
 0.950813 0.257611 0.257611 1
4
 0.947988 0.254291 0.254291 1
4
 0.955792 0.258442 0.258442 1
4
 0.95386 0.26497 0.26497 1
4
 0.954824 0.268089 0.268089 1
4
 0.950811 0.265016 0.265016 1
4
 0.945756 0.251462 0.251462 1
4
 0.940989 0.246853 0.246853 1
4
 0.953541 0.255566 0.255566 1
4
 0.951082 0.252674 0.252674 1
4
 0.951186 0.260614 0.260614 1
4
 0.947243 0.255182 0.255182 1
4
 0.946126 0.256096 0.256096 1
4
 0.947508 0.260076 0.260076 1
4
 0.947242 0.258177 0.258177 1
4
 0.940724 0.249587 0.249587 1
4
 0.943315 0.252796 0.252796 1
4
 1 0.30523 0.30523 0.986519
4
 1 0.306194 0.306194 0.988127
4
 1 0.310923 0.310923 0.981767
4
 1 0.303283 0.303283 0.991239
4
 1 0.301169 0.301169 0.989014
4
 1 0.298724 0.298724 0.996036
4
 1 0.301763 0.301763 0.99397
4
 1 0.302716 0.302716 0.99559
4
 1 0.306372 0.306372 0.99213
4
 0.983332 0.300829 0.300829 1
4
 0.987648 0.308318 0.308318 1
4
 0.99087 0.309954 0.309954 1
4
 0.991037 0.308323 0.308323 1
4
 0.97843 0.298423 0.298423 1
4
 0.990368 0.314897 0.314897 1
4
 0.995049 0.320951 0.320951 1
4
 0.976784 0.2938 0.2938 1
4
 0.975633 0.294361 0.294361 1
4
 0.992372 0.313346 0.313346 1
4
 0.99439 0.275153 0.275153 1
4
 0.982402 0.266916 0.266916 1
4
 0.988156 0.271856 0.271856 1
4
 0.976682 0.264701 0.264701 1
4
 0.982402 0.2696 0.2696 1
4
 0.975201 0.267572 0.267572 1
4
 0.99372 0.275913 0.275913 1
4
 0.98174 0.267653 0.267653 1
4
 1 0.299779 0.299779 0.971672
4
 1 0.299992 0.299992 0.968023
4
 1 0.304583 0.304583 0.966449
4
 1 0.304799 0.304799 0.96282
4
 1 0.309454 0.309454 0.961038
4
 1 0.306968 0.306968 0.965636
4
 1 0.302217 0.302217 0.967263
4
 1 0.304367 0.304367 0.970092
4
 1 0.309234 0.309234 0.964661
4
 1 0.310805 0.310805 0.965095
4
 1 0.313667 0.313667 0.959475
4
 1 0.308308 0.308308 0.969712
4
 1 0.318556 0.318556 0.957001
4
 1 0.318419 0.318419 0.959692
4
 1 0.312727 0.312727 0.964499
4
 1 0.312592 0.312592 0.967211
4
 1 0.31547 0.31547 0.961579
4
 0.942676 0.268278 0.268278 1
4
 0.941829 0.26629 0.26629 1
4
 0.939663 0.267433 0.267433 1
4
 0.937135 0.261531 0.261531 1
4
 0.952305 0.276207 0.276207 1
4
 0.946335 0.270182 0.270182 1
4
 0.951717 0.274341 0.274341 1
4
 0.948995 0.275156 0.275156 1
4
 0.944158 0.271341 0.271341 1
4
 0.956861 0.278381 0.278381 1
4
 0.95912 0.282925 0.282925 1
4
 0.954124 0.279208 0.279208 1
4
 0.964087 0.28608 0.28608 1
4
 0.960522 0.281161 0.281161 1
4
 0.950863 0.272308 0.272308 1
4
 0.950223 0.270342 0.270342 1
4
 0.940773 0.263386 0.263386 1
4
 0.945486 0.266841 0.266841 1
4
 0.959929 0.279261 0.279261 1
4
 0.955627 0.274503 0.274503 1
4
 0.955786 0.281847 0.281847 1
4
 0.960143 0.286388 0.286388 1
4
 0.965767 0.288785 0.288785 1
4
 0.945962 0.274288 0.274288 1
4
 0.955142 0.282626 0.282626 1
4
 0.947982 0.277321 0.277321 1
4
 0.943151 0.273476 0.273476 1
4
 0.952303 0.281789 0.281789 1
4
 0.961167 0.289894 0.289894 1
4
 0.95702 0.286783 0.286783 1
4
 0.949847 0.281401 0.281401 1
4
 0.944846 0.277575 0.277575 1
4
 1 0.332847 0.332847 0.997443
4
 1 0.337617 0.337617 0.992081
4
 1 0.329739 0.329739 0.995987
4
 0.999978 0.327185 0.327185 1
4
 1 0.332392 0.332392 0.993753
4
 1 0.326798 0.326798 0.997442
4
 1 0.331992 0.331992 0.991189
4
 0.995778 0.313351 0.313351 1
4
 1 0.351192 0.351192 0.959752
4
 1 0.356291 0.356291 0.95304
4
 1 0.352358 0.352358 0.962397
4
 1 0.350347 0.350347 0.963154
4
 1 0.347184 0.347184 0.961046
4
 1 0.349357 0.349357 0.955396
4
 1 0.345482 0.345482 0.958835
4
 1 0.350008 0.350008 0.956685
4
 1 0.352881 0.352881 0.955612
4
 1 0.346994 0.346994 0.965753
4
 1 0.361319 0.361319 0.941022
4
 1 0.355498 0.355498 0.946586
4
 1 0.356624 0.356624 0.942713
4
 1 0.358416 0.358416 0.945524
4
 1 0.360904 0.360904 0.94441
4
 1 0.353313 0.353313 0.94717
4
 1 0.355089 0.355089 0.949994
4
 1 0.350901 0.350901 0.948714
4
 1 0.348291 0.348291 0.954484
4
 1 0.352012 0.352012 0.944833
4
 1 0.347568 0.347568 0.946265
4
 1 0.347008 0.347008 0.952129
4
 1 0.346058 0.346058 0.950526
4
 1 0.341421 0.341421 0.960613
4
 1 0.340486 0.340486 0.958996
4
 1 0.344038 0.344038 0.950419
4
 1 0.343484 0.343484 0.956308
4
 0.931055 0.240876 0.240876 1
4
 0.927351 0.237765 0.237765 1
4
 0.932101 0.243126 0.243126 1
4
 0.928183 0.241143 0.241143 1
4
 0.931212 0.239609 0.239609 1
4
 0.935982 0.245012 0.245012 1
4
 0.925323 0.234273 0.234273 1
4
 0.935771 0.248254 0.248254 1
4
 0.933095 0.245283 0.245283 1
4
 0.939615 0.250481 0.250481 1
4
 0.933199 0.249639 0.249639 1
4
 0.931838 0.246229 0.246229 1
4
 0.938612 0.253295 0.253295 1
4
 0.938349 0.251446 0.251446 1
4
 0.937295 0.25373 0.25373 1
4
 0.934037 0.252764 0.252764 1
4
 0.971915 0.29145 0.29145 1
4
 0.96832 0.286438 0.286438 1
4
 0.967178 0.286985 0.286985 1
4
 0.959283 0.277245 0.277245 1
4
 0.953264 0.290867 0.290867 1
4
 0.955623 0.290998 0.290998 1
4
 0.948885 0.288037 0.288037 1
4
 0.948193 0.284873 0.284873 1
4
 0.961651 0.297984 0.297984 1
4
 0.959494 0.294943 0.294943 1
4
 0.952729 0.291942 0.291942 1
4
 0.96403 0.298118 0.298118 1
4
 0.962355 0.293852 0.293852 1
4
 0.958203 0.290699 0.290699 1
4
 1 0.348146 0.348146 0.968414
4
 1 0.34708 0.34708 0.973048
4
 1 0.342677 0.342677 0.974085
4
 1 0.3451 0.3451 0.973813
4
 1 0.337156 0.337156 0.988411
4
 1 0.336939 0.336939 0.983981
4
 1 0.339321 0.339321 0.983705
4
 1 0.341849 0.341849 0.983153
4
 1 0.341628 0.341628 0.978746
4
 0.961771 0.250363 0.250363 1
4
 0.957031 0.246413 0.246413 1
4
 0.961986 0.253351 0.253351 1
4
 0.959343 0.253493 0.253493 1
4
 0.962634 0.256901 0.256901 1
4
 0.957621 0.251002 0.251002 1
4
 0.956278 0.247276 0.247276 1
4
 0.956654 0.248911 0.248911 1
4
 1 0.327838 0.327838 0.956734
4
 1 0.331348 0.331348 0.952714
4
 1 0.329886 0.329886 0.956573
4
 1 0.327053 0.327053 0.962987
4
 1 0.324167 0.324167 0.965043
4
 1 0.330554 0.330554 0.95894
4
 1 0.324823 0.324823 0.967431
4
 1 0.324869 0.324869 0.971187
4
 1 0.322002 0.322002 0.973261
4
 1 0.317807 0.317807 0.974792
4
 1 0.319903 0.319903 0.974135
4
 1 0.298631 0.298631 0.988125
4
 1 0.295477 0.295477 0.992518
4
 1 0.297579 0.297579 0.995421
4
 1 0.296847 0.296847 0.992797
4
 0.995392 0.29121 0.29121 1
4
 1 0.294437 0.294437 0.999846
4
 0.999592 0.298044 0.298044 1
4
 0.998023 0.291261 0.291261 1
4
 1 0.304837 0.304837 0.994864
4
 0.954609 0.270732 0.270732 1
4
 0.94985 0.267226 0.267226 1
4
 0.950224 0.265872 0.265872 1
4
 0.950223 0.268993 0.268993 1
4
 0.940773 0.262072 0.262072 1
4
 0.941143 0.260744 0.260744 1
4
 0.936136 0.257079 0.257079 1
4
 0.945858 0.264164 0.264164 1
4
 0.944479 0.260122 0.260122 1
4
 0.941197 0.259131 0.259131 1
4
 0.939455 0.256466 0.256466 1
4
 0.942467 0.255567 0.255567 1
4
 0.950753 0.284581 0.284581 1
4
 0.945748 0.280712 0.280712 1
4
 0.958687 0.289495 0.289495 1
4
 0.949526 0.282495 0.282495 1
4
 0.959019 0.254903 0.254903 1
4
 0.954025 0.24905 0.24905 1
4
 0.955418 0.252921 0.252921 1
4
 0.961175 0.259255 0.259255 1
4
 0.957565 0.257239 0.257239 1
4
 0.951939 0.244984 0.244984 1
4
 0.958696 0.256321 0.256321 1
4
 0.976788 0.278536 0.278536 1
4
 0.974215 0.271609 0.271609 1
4
 1 0.319948 0.319948 0.977917
4
 1 0.319501 0.319501 0.982596
4
 1 0.311104 0.311104 0.985745
4
 1 0.31578 0.31578 0.979455
4
 1 0.313273 0.313273 0.984805
4
 1 0.310669 0.310669 0.990461
4
 1 0.315339 0.315339 0.984142
4
 1 0.317418 0.317418 0.983479
4
 1 0.314899 0.314899 0.98885
1
 1

